u120_12
150 120 48 52
88 0
49 0
57 1
78 1
87 2
66 3
91 4
37 2
51 3
49 4
84 5
32 3
62 5
36 6
52 6
72 7
59 6
77 7
54 8
46 8
57 9
69 9
81 10
80 11
99 12
87 13
33 8
45 10
43 11
66 14
28 12
30 13
54 14
23 2
79 15
69 15
56 16
24 11
82 16
58 17
37 17
56 18
82 18
23 9
78 19
63 19
64 20
37 17
66 20
36 21
41 21
71 21
48 22
42 22
26 13
45 22
26 14
86 23
64 24
54 23
64 24
42 25
86 25
65 26
47 26
68 27
20 10
45 27
69 28
78 28
44 29
96 29
50 30
27 26
58 30
55 31
81 31
87 32
76 33
38 30
79 34
71 33
60 32
76 35
91 36
69 34
77 37
57 35
33 27
22 12
76 38
51 36
66 37
90 39
34 38
46 39
74 40
62 40
93 41
74 42
29 38
22 41
73 42
26 41
72 43
41 43
91 44
88 45
95 46
35 43
84 47
32 44
59 45
56 47
84 48
71 49
78 49
82 50
78 51
52 46